
Gurobi 10.0.3 (linux64, gurobi_cl) logging started Thu Nov  2 11:35:23 2023

Set parameter Username
Set parameter TimeLimit to value 3600
Set parameter LogFile to value "RCPSP_666.log"
Set parameter Threads to value 32
Academic license - for non-commercial use only - expires 2024-10-30
Using license file /home/jrivera6/gurobi-licenses/v1003/compute-0-39/gurobi.lic

Gurobi Optimizer version 10.0.3 build v10.0.3rc0 (linux64)
Copyright (c) 2023, Gurobi Optimization, LLC

Read MPS format model from file RCPSP_666.mps
Reading time = 0.03 seconds
RCPSP_666: 19643 rows, 7750 columns, 60937 nonzeros

CPU model: Intel(R) Xeon(R) Gold 6242 CPU @ 2.80GHz, instruction set [SSE2|AVX|AVX2|AVX512]
Thread count: 32 physical cores, 32 logical processors, using up to 32 threads

Optimize a model with 19643 rows, 7750 columns and 60937 nonzeros
Model fingerprint: 0x640334b9
Variable types: 62 continuous, 7688 integer (7688 binary)
Coefficient statistics:
  Matrix range     [1e+00, 3e+02]
  Objective range  [1e+00, 1e+00]
  Bounds range     [1e+00, 1e+00]
  RHS range        [1e+00, 4e+02]
Presolve removed 7726 rows and 2792 columns
Presolve time: 2.78s
Presolved: 11917 rows, 4958 columns, 38178 nonzeros
Variable types: 61 continuous, 4897 integer (4897 binary)

Root relaxation: objective 6.800000e+01, 1632 iterations, 0.03 seconds (0.02 work units)

    Nodes    |    Current Node    |     Objective Bounds      |     Work
 Expl Unexpl |  Obj  Depth IntInf | Incumbent    BestBd   Gap | It/Node Time

     0     0   68.00000    0    8          -   68.00000      -     -    3s
H    0     0                      71.0000000   68.00000  4.23%     -    4s
H    0     0                      70.0000000   68.00000  2.86%     -    4s
     0     0   68.00000    0    2   70.00000   68.00000  2.86%     -    4s
     0     0   69.00000    0    2   70.00000   69.00000  1.43%     -   12s
     0     0   69.00000    0    4   70.00000   69.00000  1.43%     -   13s
H    0     0                      69.0000000   69.00000  0.00%     -   14s
     0     0   69.00000    0   11   69.00000   69.00000  0.00%     -   14s

Cutting planes:
  Gomory: 1
  Cover: 2
  Implied bound: 6
  Clique: 4
  Relax-and-lift: 2

Explored 1 nodes (5121 simplex iterations) in 14.62 seconds (2.80 work units)
Thread count was 32 (of 32 available processors)

Solution count 3: 69 70 71 

Optimal solution found (tolerance 1.00e-04)
Best objective 6.900000000000e+01, best bound 6.900000000000e+01, gap 0.0000%

Wrote result file 'RCPSP_666.sol'

